NAME : eil51.443.tour
COMMENT : Cost = 0_443
COMMENT : Found by LKH [Keld Helsgaun] Thu Nov 16 20:48:32 2017
TYPE : TOUR
DIMENSION : 53
TOUR_SECTION
1
22
52
27
53
8
26
31
28
3
36
35
20
2
29
21
16
50
34
30
9
49
10
39
33
45
15
44
42
40
19
41
13
25
14
24
43
7
23
48
6
51
46
12
47
18
4
17
37
5
38
11
32
-1
EOF
